column=6;
row=6;
Board=[|6,0,0,2,0,0|3,0,5,0,0,0|0,2,0,0,0,0|0,0,0,0,5,4|0,4,0,1,0,0|1,6,0,0,4,0|];
horizontal=[|1,1,0,1,0|0,0,1,0,0|0,0,0,0,0|1,0,0,1,1|1,1,0,1,0|0,0,0,1,1|];
vertical=[|0,0,1,0,0,1|1,1,1,1,0,0|0,1,0,0,0,1|0,1,0,0,0,0|0,0,1,0,0,0|];
